(declare-sort Loc 0)
(declare-const f1_0_main_Load Loc)
(declare-const f401_0_main_GE Loc)
(declare-const f930_0_main_GE Loc)
(declare-const f930_0_main_GE' Loc)
(declare-const f1594_0_main_GE Loc)
(declare-const f1887_0_main_InvokeMethod Loc)
(declare-const f1998_0_main_InvokeMethod Loc)
(declare-const f2825_0_main_GE Loc)
(declare-const f2825_0_main_GE' Loc)
(declare-const f810_0__init__GE Loc)
(declare-const f1738_0__init__GE Loc)
(declare-const f3834_0_sum_GE Loc)
(declare-const f5514_0_sum_GE Loc)
(declare-const f1782_0__init__GE Loc)
(declare-const f2647_0__init__GE Loc)
(declare-const f5494_0_product_GE Loc)
(declare-const f7999_0_product_GE Loc)
(declare-const f8902_0_product_GE Loc)
(declare-const f4961_0_transpose_GE Loc)
(declare-const f6926_0_transpose_GT Loc)
(declare-const f2743_0_determinant_NE Loc)
(declare-const f6845_0_determinant_GE Loc)
(declare-const f6845_0_determinant_GE' Loc)
(declare-const f7078_0_determinant_ArrayAccess Loc)
(declare-const f8521_0_submatrix_GE Loc)
(declare-const f9424_0_submatrix_GE Loc)
(declare-const __init Loc)
(assert (distinct f1_0_main_Load f401_0_main_GE f930_0_main_GE f930_0_main_GE' f1594_0_main_GE f1887_0_main_InvokeMethod f1998_0_main_InvokeMethod f2825_0_main_GE f2825_0_main_GE' f810_0__init__GE f1738_0__init__GE f3834_0_sum_GE f5514_0_sum_GE f1782_0__init__GE f2647_0__init__GE f5494_0_product_GE f7999_0_product_GE f8902_0_product_GE f4961_0_transpose_GE f6926_0_transpose_GT f2743_0_determinant_NE f6845_0_determinant_GE f6845_0_determinant_GE' f7078_0_determinant_ArrayAccess f8521_0_submatrix_GE f9424_0_submatrix_GE __init ))

(define-fun cfg_init ( (pc Loc) (src Loc) (rel Bool) ) Bool
  (and (= pc src) rel))

(define-fun cfg_trans2 ( (pc Loc) (src Loc)
                         (pc1 Loc) (dst Loc)
                         (rel Bool) ) Bool
  (and (= pc src) (= pc1 dst) rel))

(define-fun cfg_trans3 ( (pc Loc) (exit Loc)
                         (pc1 Loc) (call Loc)
                         (pc2 Loc) (return Loc)
                         (rel Bool) ) Bool
  (and (= pc exit) (= pc1 call) (= pc2 return) rel))

(define-fun init_main ( (pc Loc) (arg1 Int) (arg2 Int) (arg3 Int) (arg4 Int) (arg5 Int) (arg6 Int) (arg7 Int) (arg8 Int) (arg9 Int) ) Bool
  (cfg_init pc __init true))

(define-fun next_main (
                 (pc Loc) (arg1 Int) (arg2 Int) (arg3 Int) (arg4 Int) (arg5 Int) (arg6 Int) (arg7 Int) (arg8 Int) (arg9 Int)
                 (pc1 Loc) (arg1P Int) (arg2P Int) (arg3P Int) (arg4P Int) (arg5P Int) (arg6P Int) (arg7P Int) (arg8P Int) (arg9P Int)
             ) Bool
  (or
    (cfg_trans2 pc f1_0_main_Load pc1 f401_0_main_GE (and (and (and (and (and (<= arg1P arg1) (> arg2 (- 1))) (> arg1 0)) (> arg1P 0)) (= 0 arg2P)) (= arg2 arg3P)))
    (cfg_trans2 pc f401_0_main_GE pc1 f930_0_main_GE (and (and (and (and (and (and (<= arg1P arg1) (> arg3 arg2)) (> arg1 0)) (> arg1P 0)) (= arg2 arg2P)) (= 0 arg3P)) (= arg3 arg4P)))
    (cfg_trans2 pc f930_0_main_GE pc1 f401_0_main_GE (and (and (and (and (and (>= arg1 arg1P) (>= arg3 arg4)) (> arg1 0)) (> arg1P 0)) (= (+ arg2 1) arg2P)) (= arg4 arg3P)))
    (cfg_trans2 pc f930_0_main_GE pc1 f930_0_main_GE' (exists ((x352 Int) (x353 Int) (x354 Int)) (and (and (and (and (and (and (and (and (and (and (and (and (and (> arg2 (- 1)) (> arg3 (- 1))) (> arg4 arg3)) (= (- (+ arg2 arg3) (* 2 x352)) 1)) (> arg4 arg2)) (> x353 arg3)) (> x353 (- 1))) (<= x354 arg1)) (> arg1 0)) (> x354 0)) (= arg1 arg1P)) (= arg2 arg2P)) (= arg3 arg3P)) (= arg4 arg4P))))
    (cfg_trans2 pc f930_0_main_GE' pc1 f930_0_main_GE (exists ((x360 Int) (x361 Int)) (and (and (and (and (and (and (and (and (and (and (and (and (and (and (> arg2 (- 1)) (> arg3 (- 1))) (> arg4 arg3)) (= (- (+ arg2 arg3) (* 2 x360)) 1)) (> arg4 arg2)) (> x361 arg3)) (> x361 (- 1))) (<= arg1P arg1)) (> arg1 0)) (> arg1P 0)) (< (- (+ arg2 arg3) (* 2 x360)) 2)) (>= (- (+ arg2 arg3) (* 2 x360)) 0)) (= arg2 arg2P)) (= (+ arg3 1) arg3P)) (= arg4 arg4P))))
    (cfg_trans2 pc f930_0_main_GE pc1 f930_0_main_GE' (exists ((x366 Int) (x367 Int) (x368 Int)) (and (and (and (and (and (and (and (and (and (and (and (and (and (and (> arg2 (- 1)) (> arg3 (- 1))) (> arg4 arg3)) (= (- (+ arg2 arg3) (* 2 x366)) 0)) (> arg4 0)) (> arg4 arg2)) (> x367 arg3)) (> x367 (- 1))) (<= x368 arg1)) (> arg1 0)) (> x368 0)) (= arg1 arg1P)) (= arg2 arg2P)) (= arg3 arg3P)) (= arg4 arg4P))))
    (cfg_trans2 pc f930_0_main_GE' pc1 f930_0_main_GE (exists ((x374 Int) (x375 Int)) (and (and (and (and (and (and (and (and (and (and (and (and (and (and (and (> arg2 (- 1)) (> arg3 (- 1))) (> arg4 arg3)) (= (- (+ arg2 arg3) (* 2 x374)) 0)) (> arg4 0)) (> arg4 arg2)) (> x375 arg3)) (> x375 (- 1))) (<= arg1P arg1)) (> arg1 0)) (> arg1P 0)) (< (- (+ arg2 arg3) (* 2 x374)) 2)) (>= (- (+ arg2 arg3) (* 2 x374)) 0)) (= arg2 arg2P)) (= (+ arg3 1) arg3P)) (= arg4 arg4P))))
    (cfg_trans2 pc f401_0_main_GE pc1 f1594_0_main_GE (and (and (and (and (and (and (and (and (<= arg3 arg2) (> arg3 (- 1))) (<= (- arg1P 2) arg1)) (<= arg2P arg1)) (> arg1 0)) (> arg1P 2)) (> arg2P 0)) (= 0 arg3P)) (= arg3 arg5P)))
    (cfg_trans2 pc f1594_0_main_GE pc1 f1887_0_main_InvokeMethod (and (and (and (and (and (and (and (and (and (and (and (and (and (and (<= arg5 arg3) (> arg5 (- 1))) (<= (+ arg1P 2) arg1)) (<= arg1P arg2)) (<= arg2P arg1)) (<= (- arg2P 2) arg2)) (<= arg3P arg1)) (<= (- arg3P 2) arg2)) (> arg1 2)) (> arg2 0)) (> arg1P 0)) (> arg2P 2)) (> arg3P 2)) (= arg5 arg4P)) (= arg4 arg5P)))
    (cfg_trans2 pc f1594_0_main_GE pc1 f1887_0_main_InvokeMethod (and (and (and (and (and (and (and (and (and (and (and (and (and (and (and (<= arg5 arg3) (> arg5 (- 1))) (<= (+ arg1P 2) arg1)) (<= arg1P arg2)) (<= arg2P arg1)) (<= (- arg2P 2) arg2)) (<= arg3P arg1)) (<= (- arg3P 2) arg2)) (> arg1 2)) (> arg2 0)) (> arg1P 0)) (> arg2P 2)) (> arg3P 2)) (= arg5 arg4P)) (= arg4 arg5P)) (= arg4 arg6P)))
    (cfg_trans2 pc f1887_0_main_InvokeMethod pc1 f1998_0_main_InvokeMethod (and (and (and (and (and (and (and (and (and (and (and (and (and (and (and (and (and (and (<= arg1P arg1) (> arg4 (- 1))) (<= (+ arg1P 2) arg2)) (<= (+ arg1P 2) arg3)) (<= (- arg2P 2) arg1)) (<= arg2P arg2)) (<= arg2P arg3)) (<= (- arg3P 2) arg1)) (<= arg3P arg2)) (<= arg3P arg3)) (> arg1 0)) (> arg2 2)) (> arg3 2)) (> arg1P 0)) (> arg2P 2)) (> arg3P 2)) (= arg4 arg4P)) (= arg6 arg5P)) (= arg5 arg6P)))
    (cfg_trans2 pc f1887_0_main_InvokeMethod pc1 f1998_0_main_InvokeMethod (and (and (and (and (and (and (and (and (and (and (and (and (and (and (and (and (and (and (and (<= arg1P arg1) (> arg4 (- 1))) (<= (+ arg1P 2) arg2)) (<= (+ arg1P 2) arg3)) (<= (- arg2P 2) arg1)) (<= arg2P arg2)) (<= arg2P arg3)) (<= (- arg3P 2) arg1)) (<= arg3P arg2)) (<= arg3P arg3)) (> arg1 0)) (> arg2 2)) (> arg3 2)) (> arg1P 0)) (> arg2P 2)) (> arg3P 2)) (= arg5 arg6)) (= arg4 arg4P)) (= arg5 arg5P)) (= arg5 arg6P)))
    (cfg_trans2 pc f1594_0_main_GE pc1 f2825_0_main_GE (and (and (and (and (and (and (and (and (and (and (and (and (<= arg1P arg1) (> arg5 arg3)) (<= (- arg1P 2) arg2)) (<= (+ arg2P 2) arg1)) (<= arg2P arg2)) (> arg1 2)) (> arg2 0)) (> arg1P 2)) (> arg2P 0)) (= arg3 arg3P)) (= 0 arg4P)) (= arg4 arg5P)) (= arg5 arg6P)))
    (cfg_trans2 pc f2825_0_main_GE pc1 f1594_0_main_GE (and (and (and (and (and (and (and (and (and (and (and (<= arg1P arg1) (<= arg6 arg4)) (<= (- arg1P 2) arg2)) (<= (+ arg2P 2) arg1)) (<= arg2P arg2)) (> arg1 2)) (> arg2 0)) (> arg1P 2)) (> arg2P 0)) (= (+ arg3 1) arg3P)) (= arg5 arg4P)) (= arg6 arg5P)))
    (cfg_trans2 pc f2825_0_main_GE pc1 f2825_0_main_GE' (exists ((x382 Int) (x383 Int) (x384 Int) (x385 Int)) (and (and (and (and (and (and (and (and (and (and (and (and (and (and (and (and (and (and (and (and (> arg3 (- 1)) (> arg4 (- 1))) (> arg6 arg4)) (= (- (+ arg3 arg4) (* 3 x382)) 0)) (> arg6 arg3)) (> x383 arg4)) (> x383 (- 1))) (<= x384 arg1)) (<= (- x384 2) arg2)) (<= (+ x385 2) arg1)) (<= x385 arg2)) (> arg1 2)) (> arg2 0)) (> x384 2)) (> x385 0)) (= arg1 arg1P)) (= arg2 arg2P)) (= arg3 arg3P)) (= arg4 arg4P)) (= arg5 arg5P)) (= arg6 arg6P))))
    (cfg_trans2 pc f2825_0_main_GE' pc1 f2825_0_main_GE (exists ((x394 Int) (x395 Int)) (and (and (and (and (and (and (and (and (and (and (and (and (and (and (and (and (and (and (and (and (> arg3 (- 1)) (> arg4 (- 1))) (> arg6 arg4)) (= (- (+ arg3 arg4) (* 3 x394)) 0)) (> arg6 arg3)) (> x395 arg4)) (> x395 (- 1))) (<= arg1P arg1)) (<= (- arg1P 2) arg2)) (<= (+ arg2P 2) arg1)) (<= arg2P arg2)) (> arg1 2)) (> arg2 0)) (> arg1P 2)) (> arg2P 0)) (< (- (+ arg3 arg4) (* 3 x394)) 3)) (>= (- (+ arg3 arg4) (* 3 x394)) 0)) (= arg3 arg3P)) (= (+ arg4 1) arg4P)) (= arg5 arg5P)) (= arg6 arg6P))))
    (cfg_trans2 pc f2825_0_main_GE pc1 f2825_0_main_GE' (exists ((x402 Int) (x403 Int) (x404 Int) (x405 Int)) (and (and (and (and (and (and (and (and (and (and (and (and (and (and (and (and (and (and (and (and (and (> arg3 (- 1)) (> arg4 (- 1))) (> arg6 arg4)) (> (- (+ arg3 arg4) (* 3 x402)) 0)) (> arg6 0)) (> arg6 arg3)) (> x403 arg4)) (> x403 (- 1))) (<= x404 arg1)) (<= (- x404 2) arg2)) (<= (+ x405 2) arg1)) (<= x405 arg2)) (> arg1 2)) (> arg2 0)) (> x404 2)) (> x405 0)) (= arg1 arg1P)) (= arg2 arg2P)) (= arg3 arg3P)) (= arg4 arg4P)) (= arg5 arg5P)) (= arg6 arg6P))))
    (cfg_trans2 pc f2825_0_main_GE' pc1 f2825_0_main_GE (exists ((x414 Int) (x415 Int)) (and (and (and (and (and (and (and (and (and (and (and (and (and (and (and (and (and (and (and (and (> (- (+ arg3 arg4) (* 3 x414)) 0) (> arg3 (- 1))) (> arg4 (- 1))) (> arg6 arg4)) (> arg6 0)) (> arg6 arg3)) (> x415 arg4)) (> x415 (- 1))) (<= arg1P arg1)) (<= (- arg1P 2) arg2)) (<= (+ arg2P 2) arg1)) (<= arg2P arg2)) (> arg1 2)) (> arg2 0)) (> arg1P 2)) (> arg2P 0)) (< (- (+ arg3 arg4) (* 3 x414)) 3)) (= arg3 arg3P)) (= (+ arg4 1) arg4P)) (= arg5 arg5P)) (= arg6 arg6P))))
    (cfg_trans2 pc f401_0_main_GE pc1 f810_0__init__GE (and (and (and (and (and (and (and (and (<= arg3 arg2) (> arg3 (- 1))) (>= arg1 (- arg1P 2))) (>= arg1 arg2P)) (> arg1 0)) (> arg1P 2)) (> arg2P 0)) (= 0 arg3P)) (= arg3 arg4P)))
    (cfg_trans2 pc f1594_0_main_GE pc1 f810_0__init__GE (and (and (and (and (and (and (and (and (and (and (and (<= arg5 arg3) (> arg5 (- 1))) (<= arg1P arg1)) (<= (- arg1P 2) arg2)) (<= (+ arg2P 2) arg1)) (<= arg2P arg2)) (> arg1 2)) (> arg2 0)) (> arg1P 2)) (> arg2P 0)) (= 0 arg3P)) (= arg5 arg4P)))
    (cfg_trans2 pc f810_0__init__GE pc1 f1738_0__init__GE (and (and (and (and (and (and (and (and (and (and (and (<= arg1P arg1) (> arg4 arg3)) (<= (- arg1P 2) arg2)) (<= (+ arg2P 2) arg1)) (<= arg2P arg2)) (> arg1 2)) (> arg2 0)) (> arg1P 2)) (> arg2P 0)) (= arg3 arg3P)) (= 0 arg4P)) (= arg4 arg5P)))
    (cfg_trans2 pc f1738_0__init__GE pc1 f810_0__init__GE (and (and (and (and (and (and (and (and (and (and (<= arg1P arg1) (<= arg5 arg4)) (<= (- arg1P 2) arg2)) (<= (+ arg2P 2) arg1)) (<= arg2P arg2)) (> arg1 2)) (> arg2 0)) (> arg1P 2)) (> arg2P 0)) (= (+ arg3 1) arg3P)) (= arg5 arg4P)))
    (cfg_trans2 pc f1738_0__init__GE pc1 f1738_0__init__GE (exists ((x129 Int) (x130 Int)) (and (and (and (and (and (and (and (and (and (and (and (and (and (and (and (and (> arg5 arg4) (> arg5 arg3)) (> x129 (- 1))) (> x129 arg4)) (> x130 arg4)) (> x130 (- 1))) (<= arg1P arg1)) (<= (- arg1P 2) arg2)) (<= (+ arg2P 2) arg1)) (<= arg2P arg2)) (> arg1 2)) (> arg2 0)) (> arg1P 2)) (> arg2P 0)) (= arg3 arg3P)) (= (+ arg4 1) arg4P)) (= arg5 arg5P))))
    (cfg_trans2 pc f1594_0_main_GE pc1 f3834_0_sum_GE (and (and (and (and (and (and (and (and (and (> arg4 (- 1)) (> arg5 (- 1))) (<= arg5 arg3)) (<= arg1P arg1)) (<= (- arg1P 2) arg2)) (> arg1 2)) (> arg2 0)) (> arg1P 2)) (= 0 arg2P)) (= arg4 arg3P)))
    (cfg_trans2 pc f3834_0_sum_GE pc1 f5514_0_sum_GE (and (and (and (and (and (and (and (> arg3 arg2) (> arg3 (- 1))) (<= arg1P arg1)) (> arg1 2)) (> arg1P 2)) (= arg2 arg2P)) (= 0 arg3P)) (= arg3 arg4P)))
    (cfg_trans2 pc f5514_0_sum_GE pc1 f3834_0_sum_GE (and (and (and (and (and (and (> arg4 (- 1)) (<= arg4 arg3)) (<= arg1P arg1)) (> arg1 2)) (> arg1P 2)) (= (+ arg2 1) arg2P)) (= arg4 arg3P)))
    (cfg_trans2 pc f5514_0_sum_GE pc1 f5514_0_sum_GE (exists ((x151 Int) (x152 Int) (x153 Int)) (and (and (and (and (and (and (and (and (and (and (and (and (and (and (> arg4 arg3) (> arg4 arg2)) (> x151 (- 1))) (> x151 arg3)) (> x152 (- 1))) (> x152 arg3)) (> x153 (- 1))) (> arg4 (- 1))) (> x153 arg3)) (<= arg1P arg1)) (> arg1 2)) (> arg1P 2)) (= arg2 arg2P)) (= (+ arg3 1) arg3P)) (= arg4 arg4P))))
    (cfg_trans2 pc f1594_0_main_GE pc1 f1782_0__init__GE (and (and (and (and (and (and (and (and (and (> arg4 (- 1)) (> arg5 (- 1))) (<= arg5 arg3)) (<= arg1P arg1)) (<= (- arg1P 2) arg2)) (> arg1 2)) (> arg2 0)) (> arg1P 2)) (= 0 arg2P)) (= arg4 arg3P)))
    (cfg_trans2 pc f1782_0__init__GE pc1 f2647_0__init__GE (and (and (and (and (and (and (<= arg1P arg1) (> arg3 arg2)) (> arg1 2)) (> arg1P 2)) (= arg2 arg2P)) (= 0 arg3P)) (= arg3 arg4P)))
    (cfg_trans2 pc f2647_0__init__GE pc1 f1782_0__init__GE (and (and (and (and (and (<= arg1P arg1) (<= arg4 arg3)) (> arg1 2)) (> arg1P 2)) (= (+ arg2 1) arg2P)) (= arg4 arg3P)))
    (cfg_trans2 pc f2647_0__init__GE pc1 f2647_0__init__GE (exists ((x174 Int)) (and (and (and (and (and (and (and (and (and (> arg4 arg3) (> arg4 arg2)) (> x174 arg3)) (> x174 (- 1))) (<= arg1P arg1)) (> arg1 2)) (> arg1P 2)) (= arg2 arg2P)) (= (+ arg3 1) arg3P)) (= arg4 arg4P))))
    (cfg_trans2 pc f1887_0_main_InvokeMethod pc1 f1782_0__init__GE (and (and (and (and (and (and (and (and (and (and (> arg5 (- 1)) (> arg4 (- 1))) (<= (- arg1P 2) arg1)) (<= arg1P arg2)) (<= arg1P arg3)) (> arg1 0)) (> arg2 2)) (> arg3 2)) (> arg1P 2)) (= 0 arg2P)) (= arg5 arg3P)))
    (cfg_trans2 pc f1887_0_main_InvokeMethod pc1 f5494_0_product_GE (and (and (and (and (and (and (and (and (and (and (and (> arg4 (- 1)) (> arg5 (- 1))) (<= (- arg1P 2) arg1)) (<= arg1P arg2)) (<= arg1P arg3)) (> arg1 0)) (> arg2 2)) (> arg3 2)) (> arg1P 2)) (= arg5 arg6)) (= 0 arg2P)) (= arg5 arg3P)))
    (cfg_trans2 pc f5494_0_product_GE pc1 f7999_0_product_GE (and (and (and (and (and (and (and (> arg3 arg2) (> arg3 (- 1))) (<= arg1P arg1)) (> arg1 2)) (> arg1P 2)) (= arg2 arg2P)) (= 0 arg3P)) (= arg3 arg4P)))
    (cfg_trans2 pc f7999_0_product_GE pc1 f5494_0_product_GE (and (and (and (and (and (and (> arg4 (- 1)) (<= arg4 arg3)) (<= arg1P arg1)) (> arg1 2)) (> arg1P 2)) (= (+ arg2 1) arg2P)) (= arg4 arg3P)))
    (cfg_trans2 pc f7999_0_product_GE pc1 f8902_0_product_GE (exists ((x202 Int)) (and (and (and (and (and (and (and (and (and (and (and (> arg4 arg3) (> arg4 arg2)) (> x202 (- 1))) (> arg4 (- 1))) (> x202 arg3)) (<= arg1P arg1)) (> arg1 2)) (> arg1P 2)) (= arg2 arg2P)) (= arg3 arg3P)) (= 0 arg4P)) (= arg4 arg5P))))
    (cfg_trans2 pc f8902_0_product_GE pc1 f7999_0_product_GE (and (and (and (and (and (and (and (> arg5 (- 1)) (<= arg5 arg4)) (<= arg1P arg1)) (> arg1 2)) (> arg1P 2)) (= arg2 arg2P)) (= (+ arg3 1) arg3P)) (= arg5 arg4P)))
    (cfg_trans2 pc f8902_0_product_GE pc1 f8902_0_product_GE (exists ((x215 Int) (x216 Int) (x217 Int)) (and (and (and (and (and (and (and (and (and (and (and (and (and (and (and (> arg5 arg4) (> arg5 arg2)) (> x215 (- 1))) (> x215 arg3)) (> x216 (- 1))) (> x216 arg4)) (> x217 (- 1))) (> x217 arg3)) (> arg5 (- 1))) (<= arg1P arg1)) (> arg1 2)) (> arg1P 2)) (= arg2 arg2P)) (= arg3 arg3P)) (= (+ arg4 1) arg4P)) (= arg5 arg5P))))
    (cfg_trans2 pc f1998_0_main_InvokeMethod pc1 f1782_0__init__GE (and (and (and (and (and (and (and (and (and (and (> arg6 (- 1)) (> arg4 (- 1))) (<= (- arg1P 2) arg1)) (<= arg1P arg2)) (<= arg1P arg3)) (> arg1 0)) (> arg2 2)) (> arg3 2)) (> arg1P 2)) (= 0 arg2P)) (= arg6 arg3P)))
    (cfg_trans2 pc f1998_0_main_InvokeMethod pc1 f4961_0_transpose_GE (and (and (and (and (and (and (and (and (and (and (> arg6 (- 1)) (> arg4 (- 1))) (<= (- arg1P 2) arg1)) (<= arg1P arg2)) (<= arg1P arg3)) (> arg1 0)) (> arg2 2)) (> arg3 2)) (> arg1P 2)) (= 0 arg2P)) (= arg6 arg3P)))
    (cfg_trans2 pc f4961_0_transpose_GE pc1 f6926_0_transpose_GT (and (and (and (and (and (and (<= arg1P arg1) (> arg3 arg2)) (> arg1 2)) (> arg1P 2)) (= 0 arg2P)) (= arg2 arg3P)) (= arg3 arg4P)))
    (cfg_trans2 pc f6926_0_transpose_GT pc1 f4961_0_transpose_GE (and (and (and (and (and (and (> arg4 (- 1)) (< arg3 arg2)) (<= arg1P arg1)) (> arg1 2)) (> arg1P 2)) (= (+ arg3 1) arg2P)) (= arg4 arg3P)))
    (cfg_trans2 pc f6926_0_transpose_GT pc1 f6926_0_transpose_GT (exists ((x246 Int) (x247 Int) (x248 Int) (x249 Int)) (and (and (and (and (and (and (and (and (and (and (and (and (and (and (and (and (>= arg3 arg2) (> arg4 arg3)) (> arg4 arg2)) (> x246 (- 1))) (> x246 arg3)) (> x247 (- 1))) (> x247 arg2)) (> x248 (- 1))) (> x248 arg2)) (> x249 arg3)) (> x249 (- 1))) (<= arg1P arg1)) (> arg1 2)) (> arg1P 2)) (= (+ arg2 1) arg2P)) (= arg3 arg3P)) (= arg4 arg4P))))
    (cfg_trans2 pc f1998_0_main_InvokeMethod pc1 f2743_0_determinant_NE (and (and (and (and (and (and (and (and (and (> arg5 (- 1)) (> arg4 (- 1))) (<= (- arg1P 2) arg1)) (<= arg1P arg2)) (<= arg1P arg3)) (> arg1 0)) (> arg2 2)) (> arg3 2)) (> arg1P 2)) (= arg5 arg2P)))
    (cfg_trans2 pc f2743_0_determinant_NE pc1 f6845_0_determinant_GE (and (and (and (and (and (<= arg1P arg1) (> arg2 1)) (> arg1 2)) (> arg1P 2)) (= 0 arg2P)) (= arg2 arg3P)))
    (cfg_trans2 pc f6845_0_determinant_GE pc1 f6845_0_determinant_GE' (exists ((x419 Int) (x420 Int) (x421 Int)) (and (and (and (and (and (and (and (and (and (> arg3 0) (> arg3 arg2)) (= (- arg2 (* 2 x419)) 1)) (<= x420 arg1)) (> arg1 2)) (> x420 2)) (> x421 (- 1))) (= arg1 arg1P)) (= arg2 arg2P)) (= arg3 arg3P))))
    (cfg_trans2 pc f6845_0_determinant_GE' pc1 f7078_0_determinant_ArrayAccess (exists ((x427 Int)) (and (and (and (and (and (and (and (and (and (and (> arg3 0) (> arg3 arg2)) (= (- arg2 (* 2 x427)) 1)) (<= arg1P arg1)) (> arg1 2)) (> arg1P 2)) (> arg2P (- 1))) (< (- arg2 (* 2 x427)) 2)) (>= (- arg2 (* 2 x427)) 0)) (= arg2 arg3P)) (= arg3 arg4P))))
    (cfg_trans2 pc f6845_0_determinant_GE pc1 f6845_0_determinant_GE' (exists ((x431 Int) (x432 Int) (x433 Int)) (and (and (and (and (and (and (and (and (and (> arg3 0) (> arg3 arg2)) (= (- arg2 (* 2 x431)) 0)) (<= x432 arg1)) (> arg1 2)) (> x432 2)) (> x433 (- 1))) (= arg1 arg1P)) (= arg2 arg2P)) (= arg3 arg3P))))
    (cfg_trans2 pc f6845_0_determinant_GE' pc1 f7078_0_determinant_ArrayAccess (exists ((x439 Int)) (and (and (and (and (and (and (and (and (and (and (> arg3 0) (> arg3 arg2)) (= (- arg2 (* 2 x439)) 0)) (<= arg1P arg1)) (> arg1 2)) (> arg1P 2)) (> arg2P (- 1))) (< (- arg2 (* 2 x439)) 2)) (>= (- arg2 (* 2 x439)) 0)) (= arg2 arg3P)) (= arg3 arg4P))))
    (cfg_trans2 pc f7078_0_determinant_ArrayAccess pc1 f2743_0_determinant_NE (exists ((x276 Int)) (and (and (and (and (and (and (and (and (and (> arg4 arg3) (> arg2P 0)) (> arg4 1)) (> x276 arg3)) (> x276 (- 1))) (<= arg1P arg1)) (<= (- arg1P 2) arg2)) (> arg1 2)) (> arg2 0)) (> arg1P 2))))
    (cfg_trans2 pc f7078_0_determinant_ArrayAccess pc1 f6845_0_determinant_GE (exists ((x282 Int) (x283 Int)) (and (and (and (and (and (and (and (and (and (and (and (> arg4 arg3) (> arg4 1)) (> x282 arg3)) (> x283 0)) (> x282 (- 1))) (<= arg1P arg1)) (<= (- arg1P 2) arg2)) (> arg1 2)) (> arg2 0)) (> arg1P 2)) (= (+ arg3 1) arg2P)) (= arg4 arg3P))))
    (cfg_trans2 pc f7078_0_determinant_ArrayAccess pc1 f1782_0__init__GE (exists ((x289 Int)) (and (and (and (and (and (and (and (and (and (and (and (and (> arg4 arg3) (> arg4 1)) (> x289 arg3)) (> x289 (- 1))) (< (- arg4 1) arg4)) (>= (- arg4 1) arg3)) (<= arg1P arg1)) (<= (- arg1P 2) arg2)) (> arg1 2)) (> arg2 0)) (> arg1P 2)) (= 0 arg2P)) (= (- arg4 1) arg3P))))
    (cfg_trans2 pc f7078_0_determinant_ArrayAccess pc1 f8521_0_submatrix_GE (exists ((x296 Int)) (and (and (and (and (and (and (and (and (and (and (and (and (and (and (and (and (and (and (> arg4 arg3) (> arg4 1)) (> x296 arg3)) (> x296 (- 1))) (< (- arg4 1) arg4)) (>= (- arg4 1) arg3)) (<= arg1P arg1)) (<= (- arg1P 2) arg2)) (<= arg3P arg1)) (<= (- arg3P 2) arg2)) (> arg1 2)) (> arg2 0)) (> arg1P 2)) (> arg3P 2)) (= arg3 arg2P)) (= 0 arg4P)) (= 0 arg5P)) (= arg4 arg6P)) (= (- arg4 1) arg7P))))
    (cfg_trans2 pc f8521_0_submatrix_GE pc1 f8521_0_submatrix_GE (and (and (and (and (and (and (and (and (and (and (and (and (and (and (<= arg1P arg1) (> arg6 0)) (<= arg1P arg3)) (<= arg3P arg1)) (<= arg3P arg3)) (> arg1 2)) (> arg3 2)) (> arg1P 2)) (> arg3P 2)) (= 0 arg5)) (= arg2 arg2P)) (= arg4 arg4P)) (= 1 arg5P)) (= arg6 arg6P)) (= arg7 arg7P)))
    (cfg_trans2 pc f8521_0_submatrix_GE pc1 f9424_0_submatrix_GE (and (and (and (and (and (and (and (and (and (and (and (and (and (and (and (and (and (> arg6 (- 1)) (> arg6 arg5)) (> arg5 0)) (<= arg1P arg1)) (<= arg1P arg3)) (<= arg3P arg1)) (<= arg3P arg3)) (> arg1 2)) (> arg3 2)) (> arg1P 2)) (> arg3P 2)) (= arg2 arg2P)) (= arg5 arg4P)) (= arg4 arg5P)) (= 0 arg6P)) (= 0 arg7P)) (= arg6 arg8P)) (= arg7 arg9P)))
    (cfg_trans2 pc f9424_0_submatrix_GE pc1 f8521_0_submatrix_GE (and (and (and (and (and (and (and (and (and (and (and (and (and (and (<= arg8 arg7) (> arg8 (- 1))) (<= arg1P arg1)) (<= arg1P arg3)) (<= arg3P arg1)) (<= arg3P arg3)) (> arg1 2)) (> arg3 2)) (> arg1P 2)) (> arg3P 2)) (= arg2 arg2P)) (= (+ arg5 1) arg4P)) (= (+ arg4 1) arg5P)) (= arg8 arg6P)) (= arg9 arg7P)))
    (cfg_trans2 pc f9424_0_submatrix_GE pc1 f9424_0_submatrix_GE (and (and (and (and (and (and (and (and (and (and (and (and (and (and (and (and (and (> arg8 arg2) (> arg8 (- 1))) (<= arg1P arg1)) (<= arg1P arg3)) (<= arg3P arg1)) (<= arg3P arg3)) (> arg1 2)) (> arg3 2)) (> arg1P 2)) (> arg3P 2)) (= arg2 arg7)) (= arg2 arg2P)) (= arg4 arg4P)) (= arg5 arg5P)) (= arg6 arg6P)) (= (+ arg2 1) arg7P)) (= arg8 arg8P)) (= arg9 arg9P)))
    (cfg_trans2 pc f9424_0_submatrix_GE pc1 f9424_0_submatrix_GE (exists ((x346 Int) (x347 Int)) (and (and (and (and (and (and (and (and (and (and (and (and (and (and (and (and (and (and (and (and (and (and (and (< arg7 arg2) (> arg8 arg7)) (> arg9 arg5)) (> arg8 arg4)) (> x346 (- 1))) (> x346 arg7)) (> x347 (- 1))) (> arg8 (- 1))) (> x347 arg6)) (<= arg1P arg1)) (<= arg1P arg3)) (<= arg3P arg1)) (<= arg3P arg3)) (> arg1 2)) (> arg3 2)) (> arg1P 2)) (> arg3P 2)) (= arg2 arg2P)) (= arg4 arg4P)) (= arg5 arg5P)) (= (+ arg6 1) arg6P)) (= (+ arg7 1) arg7P)) (= arg8 arg8P)) (= arg9 arg9P))))
    (cfg_trans2 pc f9424_0_submatrix_GE pc1 f9424_0_submatrix_GE (exists ((x451 Int) (x452 Int)) (and (and (and (and (and (and (and (and (and (and (and (and (and (and (and (and (and (and (and (and (and (and (and (> arg7 arg2) (> arg8 arg7)) (> arg9 arg5)) (> arg8 arg4)) (> x451 (- 1))) (> x451 arg7)) (> x452 (- 1))) (> arg8 (- 1))) (> x452 arg6)) (<= arg1P arg1)) (<= arg1P arg3)) (<= arg3P arg1)) (<= arg3P arg3)) (> arg1 2)) (> arg3 2)) (> arg1P 2)) (> arg3P 2)) (= arg2 arg2P)) (= arg4 arg4P)) (= arg5 arg5P)) (= (+ arg6 1) arg6P)) (= (+ arg7 1) arg7P)) (= arg8 arg8P)) (= arg9 arg9P))))
    (cfg_trans2 pc __init pc1 f1_0_main_Load true)
  )
)
